3212.14
0 46 28 14 68 69 35 38 51 40 39 70 6 0
0 57 61 58 33 30 24 26 15 20 37 48 47 13 9 7 0
0 59 63 64 16 74 75 10 12 0
0 44 25 53 41 50 67 72 60 11 4 3 0
0 54 56 65 22 45 8 73 5 0
0 32 31 18 1 0
0 55 62 17 0
0 27 21 29 66 52 42 36 49 71 0
0 23 34 19 43 2 0
